p cnf 7230 17
-4592 -5126 5444 0
-4612 -5128 5449 0
4600 5148 5447 0
-2116 -5122 -5445 0
4612 -5450 0
-4600 -5448 0
2116 -5446 0
-5449 5450 0
-5447 5448 0
5445 5446 0
5128 -5450 0
-5148 -5448 0
5122 -5446 0
-5443 -5444 0
-5138 -5452 0
-4632 -5452 0
5443 5444 0
